(declare-fun temp17268_1 () (_ BitVec 64))
(declare-fun temp17268_2 () (_ BitVec 64))
(declare-fun var77740 () (_ BitVec 64))
(declare-fun k!0 () Bool)
(declare-fun ARGNAME_input_1_NAMEEND_DIM () (_ BitVec 64))
(declare-fun ARGNAME_data_format_NAMEEND_STRFMT () (_ BitVec 64))
(declare-fun temp17268_3 () (_ BitVec 64))
(declare-fun ARGNAME_input_2_NAMEEND_DIM () (_ BitVec 64))
(declare-fun var77770 () (_ BitVec 64))
(declare-fun temp17268_4 () (_ BitVec 64))
(declare-fun temp17268_5 () (_ BitVec 64))
(declare-fun ARGNAME_input_1_NAMEEND_DIMSIZE
             ()
             (Array (_ BitVec 64) (_ BitVec 64)))
(declare-fun temp17268_6 () (_ BitVec 64))
(declare-fun temp17268_7 () (_ BitVec 64))
(declare-fun temp17268_8 () (_ BitVec 64))
(declare-fun temp17268_9 () (_ BitVec 64))
(declare-fun temp17268_10 () (_ BitVec 64))
(declare-fun temp17268_11 () (_ BitVec 64))
(declare-fun temp17268_12 () (_ BitVec 64))
(declare-fun temp17268_13 () (_ BitVec 64))
(declare-fun temp17268_14 () (_ BitVec 64))
(declare-fun temp17268_15 () (_ BitVec 64))
(declare-fun temp17268_16 () (_ BitVec 64))
(declare-fun temp17268_17 () (_ BitVec 64))
(declare-fun temp17268_18 () (_ BitVec 64))
(declare-fun var77799 () (_ BitVec 64))
(declare-fun temp17268_19 () (_ BitVec 64))
(declare-fun ARGNAME_input_2_NAMEEND_DIMSIZE
             ()
             (Array (_ BitVec 64) (_ BitVec 64)))
(declare-fun temp17268_20 () (_ BitVec 64))
(declare-fun temp17268_21 () (_ BitVec 64))
(declare-fun temp17268_22 () (_ BitVec 64))
(declare-fun temp17268_23 () (_ BitVec 64))
(declare-fun temp17268_24 () (_ BitVec 64))
(declare-fun temp17268_25 () (_ BitVec 64))
(declare-fun temp17268_26 () (_ BitVec 64))
(declare-fun temp17268_27 () (_ BitVec 64))
(declare-fun temp17268_28 () (_ BitVec 64))
(declare-fun temp17268_29 () (_ BitVec 64))
(declare-fun temp17268_30 () (_ BitVec 64))
(declare-fun temp17268_31 () (_ BitVec 64))
(declare-fun temp17268_32 () (_ BitVec 64))
(declare-fun var77832 () (_ BitVec 64))
(declare-fun temp17268_33 () (_ BitVec 64))
(declare-fun temp17268_34 () (_ BitVec 64))
(declare-fun var77833 () (_ BitVec 64))
(declare-fun var77834 () (_ BitVec 64))
(declare-fun temp17268_35 () (_ BitVec 64))
(declare-fun temp17268_36 () (_ BitVec 64))
(declare-fun var275510 () (_ BitVec 64))
(declare-fun temp17268_37 () (_ BitVec 64))
(declare-fun var275528 () (_ BitVec 64))
(declare-fun temp17268_38 () (_ BitVec 64))
(declare-fun temp17268_39 () (_ BitVec 64))
(declare-fun var406582 () (_ BitVec 64))
(declare-fun temp17268_40 () (_ BitVec 64))
(declare-fun var406600 () (_ BitVec 64))
(declare-fun temp17268_41 () (_ BitVec 64))
(declare-fun temp17268_42 () (_ BitVec 64))
(declare-fun var537654 () (_ BitVec 64))
(declare-fun temp17268_43 () (_ BitVec 64))
(declare-fun var537672 () (_ BitVec 64))
(declare-fun temp17268_44 () (_ BitVec 64))
(declare-fun temp17268_46 () (_ BitVec 64))
(declare-fun temp17268_45 () (_ BitVec 64))
(declare-fun temp17268_48 () (_ BitVec 64))
(declare-fun temp17268_47 () (_ BitVec 64))
(declare-fun temp17268_50 () (_ BitVec 64))
(declare-fun temp17268_49 () (_ BitVec 64))
(declare-fun temp17268_51 () (_ BitVec 64))
(declare-fun var795723 () (_ BitVec 64))
(declare-fun var795702 () (_ BitVec 64))
(declare-fun var664608 () (_ BitVec 64))
(declare-fun temp17268_52 () (_ BitVec 64))
(declare-fun temp17268_53 () (_ BitVec 64))
(declare-fun var861259 () (_ BitVec 64))
(declare-fun var861238 () (_ BitVec 64))
(declare-fun var664611 () (_ BitVec 64))
(declare-fun temp17268_54 () (_ BitVec 64))
(declare-fun temp17268_55 () (_ BitVec 64))
(declare-fun var1057842 () (_ BitVec 64))
(declare-fun temp17268_56 () (_ BitVec 64))
(declare-fun var1123378 () (_ BitVec 64))
(declare-fun temp17268_57 () (_ BitVec 64))
(declare-fun var1188914 () (_ BitVec 64))
(declare-fun temp17268_59 () (_ BitVec 64))
(declare-fun temp17268_58 () (_ BitVec 64))
(declare-fun temp17268_61 () (_ BitVec 64))
(declare-fun temp17268_60 () (_ BitVec 64))
(assert (or (= ARGNAME_data_format_NAMEEND_STRFMT #x0000000000000000)
    (= ARGNAME_data_format_NAMEEND_STRFMT #x0000000000000001)
    (= ARGNAME_data_format_NAMEEND_STRFMT #x0000000000000002)
    (= ARGNAME_data_format_NAMEEND_STRFMT #x0000000000000003)
    (= ARGNAME_data_format_NAMEEND_STRFMT #x0000000000000004)
    (= ARGNAME_data_format_NAMEEND_STRFMT #x0000000000000005)))
(assert (= temp17268_1 #x0000000000000005))
(assert (= var77740
   (ite (= ARGNAME_input_1_NAMEEND_DIM temp17268_1)
        #x0000000000000001
        #x0000000000000000)))
(assert (= temp17268_2 #x0000000000000001))
(assert (= var77740 temp17268_2))
(assert (= temp17268_3 #x0000000000000005))
(assert (= var77770
   (ite (= ARGNAME_input_2_NAMEEND_DIM temp17268_3)
        #x0000000000000001
        #x0000000000000000)))
(assert (= temp17268_4 #x0000000000000001))
(assert (= var77770 temp17268_4))
(assert (= temp17268_5 #x0000000000000000))
(assert (= temp17268_6 (select ARGNAME_input_1_NAMEEND_DIMSIZE temp17268_5)))
(assert (= temp17268_7 #x0000000000000001))
(assert (= temp17268_8 (select ARGNAME_input_1_NAMEEND_DIMSIZE temp17268_7)))
(assert (= temp17268_9 #x0000000000000002))
(assert (= temp17268_10 (select ARGNAME_input_1_NAMEEND_DIMSIZE temp17268_9)))
(assert (= temp17268_11 #x0000000000000003))
(assert (= temp17268_12 (select ARGNAME_input_1_NAMEEND_DIMSIZE temp17268_11)))
(assert (= temp17268_13 #x0000000000000004))
(assert (= temp17268_14 (select ARGNAME_input_1_NAMEEND_DIMSIZE temp17268_13)))
(assert (= temp17268_15 #x0000000000000005))
(assert (= temp17268_16 (select ARGNAME_input_1_NAMEEND_DIMSIZE temp17268_15)))
(assert (= temp17268_17 #x0000000000000003))
(assert (= temp17268_18 (select ARGNAME_input_1_NAMEEND_DIMSIZE temp17268_17)))
(assert (= var77799 temp17268_18))
(assert (= temp17268_19 #x0000000000000000))
(assert (= temp17268_20 (select ARGNAME_input_2_NAMEEND_DIMSIZE temp17268_19)))
(assert (= temp17268_21 #x0000000000000001))
(assert (= temp17268_22 (select ARGNAME_input_2_NAMEEND_DIMSIZE temp17268_21)))
(assert (= temp17268_23 #x0000000000000002))
(assert (= temp17268_24 (select ARGNAME_input_2_NAMEEND_DIMSIZE temp17268_23)))
(assert (= temp17268_25 #x0000000000000003))
(assert (= temp17268_26 (select ARGNAME_input_2_NAMEEND_DIMSIZE temp17268_25)))
(assert (= temp17268_27 #x0000000000000004))
(assert (= temp17268_28 (select ARGNAME_input_2_NAMEEND_DIMSIZE temp17268_27)))
(assert (= temp17268_29 #x0000000000000005))
(assert (= temp17268_30 (select ARGNAME_input_2_NAMEEND_DIMSIZE temp17268_29)))
(assert (= temp17268_31 #x0000000000000004))
(assert (= temp17268_32 (select ARGNAME_input_2_NAMEEND_DIMSIZE temp17268_31)))
(assert (= var77832 temp17268_32))
(assert (= temp17268_33 #x0000000000000004))
(assert (= temp17268_34 (select ARGNAME_input_1_NAMEEND_DIMSIZE temp17268_33)))
(assert (= var77833 temp17268_34))
(assert (= var77834 (ite (= var77832 var77833) #x0000000000000001 #x0000000000000000)))
(assert (= temp17268_35 #x0000000000000001))
(assert (= var77834 temp17268_35))
(assert (= temp17268_36 #x0000000000000001))
(assert (= var275510 temp17268_36))
(assert (= temp17268_37 #x0000000000000001))
(assert (= var275528
   (ite (bvslt var275510 temp17268_37) #x0000000000000001 #x0000000000000000)))
(assert (= temp17268_38 #x0000000000000000))
(assert (= var275528 temp17268_38))
(assert (= temp17268_39 #x0000000000000001))
(assert (= var406582 temp17268_39))
(assert (= temp17268_40 #x0000000000000001))
(assert (= var406600
   (ite (bvslt var406582 temp17268_40) #x0000000000000001 #x0000000000000000)))
(assert (= temp17268_41 #x0000000000000000))
(assert (= var406600 temp17268_41))
(assert (= temp17268_42 #x0000000000000001))
(assert (= var537654 temp17268_42))
(assert (= temp17268_43 #x0000000000000001))
(assert (= var537672
   (ite (bvslt var537654 temp17268_43) #x0000000000000001 #x0000000000000000)))
(assert (= temp17268_44 #x0000000000000000))
(assert (= var537672 temp17268_44))
(assert (= temp17268_46 #x00000000000000ff))
(assert (= temp17268_45 temp17268_46))
(assert (= temp17268_48 #x00000000000000ff))
(assert (= temp17268_47 temp17268_48))
(assert (= temp17268_50 #x00000000000000ff))
(assert (= temp17268_49 temp17268_50))
(assert (= temp17268_51 #x0000000000000000))
(assert (= var795723 temp17268_51))
(assert (= var795702 var795723))
(assert (= var664608 var795702))
(assert (= temp17268_52 #x0000000000000000))
(assert (= var664608 temp17268_52))
(assert (= temp17268_53 #x0000000000000000))
(assert (= var861259 temp17268_53))
(assert (= var861238 var861259))
(assert (= var664611 var861238))
(assert (= temp17268_54 #x0000000000000000))
(assert (= var664611 temp17268_54))
(assert (= temp17268_55 #x0000000000008000))
(assert (= var1057842 temp17268_55))
(assert (= temp17268_56 #x0000000000040000))
(assert (= var1123378 temp17268_56))
(assert (= temp17268_57 #x0000000000200000))
(assert (= var1188914 temp17268_57))
(assert (= temp17268_59 #x0000000000000001))
(assert (= temp17268_58 temp17268_59))
(assert (= temp17268_61 #x0000000000000001))
(assert (= temp17268_60 temp17268_61))
(model-add temp17268_1 () (_ BitVec 64) #x0000000000000005)
(model-add temp17268_2 () (_ BitVec 64) #x0000000000000001)
(model-add var77740 () (_ BitVec 64) #x0000000000000001)
(model-del k!0)
(model-add ARGNAME_input_1_NAMEEND_DIM
           ()
           (_ BitVec 64)
           (ite k!0 #x0000000000000005 (bvnot #x0000000000000005)))

